p cnf 10 27
9 3 -3 -2 0
3 -6 2 0
6 0
-8 -6 -1 0
8 2 5 -10 0
-5 7 0
-6 0
10 6 0
2 -5 4 -10 0
10 -5 0
7 0
-4 0
3 -5 -3 0
4 0
8 -10 0
9 3 0
-5 0
9 1 -9 0
-8 -3 0
8 -7 5 7 0
6 0
-6 0
8 -3 0
-5 -4 7 0
2 -9 0
1 6 0
2 5 -3 -1 0
